# Objective value = 2.9754995696964920e+02
x[0] 1
x[1] 0
x[2] 0
x[3] 0
x[4] 1
x[5] 1
x[6] 1
x[7] 0
x[8] 1
x[9] 0
x[10] 1
x[11] 0
x[12] 1
x[13] 1
x[14] 0
x[15] 0
x[16] 1
x[17] 1
x[18] 1
x[19] 1
x[20] 1
x[21] 0
x[22] 0
x[23] 0
x[24] 1
x[25] 1
x[26] 1
x[27] 0
x[28] 0
x[29] 0
x[30] 0
x[31] 1
x[32] 1
x[33] 0
x[34] 0
x[35] 1
x[36] 1
x[37] 1
x[38] 0
x[39] 0
x[40] 1
x[41] 1
x[42] 0
x[43] 0
x[44] 0
x[45] 1
x[46] 0
x[47] 0
x[48] 1
x[49] 1
x[50] 1
x[51] 0
x[52] 0
x[53] 1
x[54] 1
x[55] 0
x[56] 0
x[57] 1
x[58] 0
x[59] 1
x[60] 0
x[61] 0
x[62] 0
x[63] 1
x[64] 0
x[65] 1
x[66] 1
x[67] 0
x[68] 0
x[69] 1
x[70] 1
x[71] 0
x[72] 0
x[73] 1
x[74] 0
x[75] 1
x[76] 0
x[77] 0
x[78] 1
x[79] 1
x[80] 0
x[81] 0
x[82] 1
x[83] 1
x[84] 1
x[85] 1
x[86] 0
x[87] 0
x[88] 1
x[89] 0
x[90] 0
x[91] 1
x[92] 0
x[93] 1
x[94] 0
x[95] 1
x[96] 1
x[97] 0
x[98] 0
x[99] 1
x[100] 0
x[101] 0
x[102] 0
x[103] 0
x[104] 1
x[105] 1
x[106] 1
x[107] 0
x[108] 0
x[109] 1
x[110] 1
x[111] 0
x[112] 0
x[113] 1
x[114] 0
x[115] 0
x[116] 1
x[117] 0
x[118] 0
x[119] 0
x[120] 0
x[121] 1
x[122] 1
x[123] 0
x[124] 1
x[125] 1
x[126] 0
x[127] 1
x[128] 0
x[129] 0
x[130] 1
x[131] 0
x[132] 0
x[133] 0
x[134] 1
x[135] 1
x[136] 1
x[137] 1
x[138] 1
x[139] 0
x[140] 0
x[141] 1
x[142] 0
x[143] 1
x[144] 0
x[145] 0
x[146] 1
x[147] 0
x[148] 0
x[149] 1
x[150] 1
x[151] 1
x[152] 0
x[153] 0
x[154] 0
x[155] 1
x[156] 1
x[157] 0
x[158] 1
x[159] 1
x[160] 1
x[161] 1
x[162] 0
x[163] 0
x[164] 1
x[165] 1
x[166] 1
x[167] 1
x[168] 0
x[169] 1
x[170] 0
x[171] 0
x[172] 1
x[173] 0
x[174] 1
x[175] 1
x[176] 1
x[177] 1
x[178] 0
x[179] 0
x[180] 1
x[181] 1
x[182] 1
x[183] 0
x[184] 0
x[185] 1
x[186] 1
x[187] 1
x[188] 1
x[189] 0
x[190] 1
x[191] 1
x[192] 0
x[193] 1
x[194] 0
x[195] 1
x[196] 0
x[197] 1
x[198] 0
x[199] 0
x[200] 0
x[201] 0
x[202] 0
x[203] 0
x[204] 1
x[205] 0
x[206] 0
x[207] 0
x[208] 1
x[209] 0
x[210] 1
x[211] 0
x[212] 1
x[213] 1
x[214] 1
x[215] 0
x[216] 0
x[217] 1
x[218] 0
x[219] 0
x[220] 0
x[221] 1
x[222] 1
x[223] 1
x[224] 1
x[225] 1
x[226] 0
x[227] 1
x[228] 0
x[229] 1
x[230] 0
x[231] 0
x[232] 1
x[233] 1
x[234] 1
x[235] 0
x[236] 1
x[237] 0
x[238] 0
x[239] 0
x[240] 1
x[241] 1
x[242] 0
x[243] 0
x[244] 0
x[245] 1
x[246] 0
x[247] 0
x[248] 0
x[249] 0
x[250] 1
x[251] 0
x[252] 0
x[253] 0
x[254] 0
x[255] 0
x[256] 0
x[257] 1
x[258] 0
x[259] 0
x[260] 0
x[261] 1
x[262] 1
x[263] 0
x[264] 1
x[265] 0
x[266] 0
x[267] 0
x[268] 0
x[269] 0
x[270] 1
x[271] 1
x[272] 0
x[273] 0
x[274] 1
x[275] 1
x[276] 1
x[277] 1
x[278] 0
x[279] 1
x[280] 0
x[281] 1
x[282] 1
x[283] 0
x[284] 0
x[285] 1
x[286] 1
x[287] 0
x[288] 0
x[289] 0
x[290] 0
x[291] 0
x[292] 1
x[293] 0
x[294] 1
x[295] 1
x[296] 1
x[297] 1
x[298] 0
x[299] 1
x[300] 0
x[301] 1
x[302] 0
x[303] 0
x[304] 0
x[305] 1
x[306] 1
x[307] 0
x[308] 1
x[309] 1
x[310] 1
x[311] 0
x[312] 1
x[313] 0
x[314] 0
x[315] 1
x[316] 0
x[317] 0
x[318] 1
x[319] 0
x[320] 0
x[321] 0
x[322] 1
x[323] 1
x[324] 1
x[325] 0
x[326] 1
x[327] 0
x[328] 0
x[329] 0
x[330] 0
x[331] 0
x[332] 0
x[333] 1
x[334] 1
x[335] 1
x[336] 0
x[337] 0
x[338] 1
x[339] 0
x[340] 1
x[341] 1
x[342] 1
x[343] 0
x[344] 0
x[345] 0
x[346] 1
x[347] 1
x[348] 1
x[349] 1
x[350] 0
x[351] 0
x[352] 1
x[353] 0
x[354] 0
x[355] 0
x[356] 1
x[357] 0
x[358] 0
x[359] 1
x[360] 0
x[361] 0
x[362] 1
x[363] 0
x[364] 0
x[365] 1
x[366] 1
x[367] 1
x[368] 0
x[369] 0
x[370] 0
x[371] 0
x[372] 1
x[373] 0
x[374] 1
x[375] 1
x[376] 0
x[377] 0
x[378] 1
x[379] 0
x[380] 0
x[381] 0
x[382] 1
x[383] 0
x[384] 0
x[385] 1
x[386] 0
x[387] 1
x[388] 0
x[389] 0
x[390] 1
x[391] 0
x[392] 1
x[393] 0
x[394] 1
x[395] 1
x[396] 0
x[397] 0
x[398] 0
x[399] 0
x[400] 0
x[401] 1
x[402] 1
x[403] 0
x[404] 0
x[405] 1
x[406] 1
x[407] 0
x[408] 0
x[409] 0
x[410] 0
x[411] 1
x[412] 1
x[413] 1
x[414] 1
x[415] 0
x[416] 0
x[417] 1
x[418] 0
x[419] 0
x[420] 1
x[421] 1
x[422] 0
x[423] 1
x[424] 0
x[425] 1
x[426] 0
x[427] 1
x[428] 0
x[429] 1
x[430] 1
x[431] 0
x[432] 0
x[433] 0
x[434] 1
x[435] 0
x[436] 1
x[437] 1
x[438] 0
x[439] 1
x[440] 1
x[441] 1
x[442] 0
x[443] 0
x[444] 0
x[445] 1
x[446] 1
x[447] 0
x[448] 1
x[449] 1
x[450] 0
x[451] 0
x[452] 1
x[453] 0
x[454] 0
x[455] 1
x[456] 1
x[457] 0
x[458] 1
x[459] 0
x[460] 1
x[461] 1
x[462] 1
x[463] 0
x[464] 1
x[465] 0
x[466] 1
x[467] 1
x[468] 1
x[469] 0
x[470] 0
x[471] 1
x[472] 0
x[473] 1
x[474] 0
x[475] 0
x[476] 1
x[477] 0
x[478] 1
x[479] 0
x[480] 0
x[481] 1
x[482] 0
x[483] 1
x[484] 1
x[485] 0
x[486] 0
x[487] 0
x[488] 1
x[489] 0
x[490] 1
x[491] 0
x[492] 0
x[493] 0
x[494] 0
x[495] 1
x[496] 0
x[497] 0
x[498] 0
x[499] 0
x[500] 1
x[501] 0
x[502] 0
x[503] 1
x[504] 1
x[505] 1
x[506] 0
x[507] 1
x[508] 0
x[509] 1
x[510] 1
x[511] 0
x[512] 0
x[513] 1
x[514] 1
x[515] 1
x[516] 0
x[517] 1
x[518] 0
x[519] 1
x[520] 1
x[521] 1
x[522] 0
x[523] 1
x[524] 1
x[525] 1
x[526] 0
x[527] 0
x[528] 1
x[529] 1
x[530] 1
x[531] 0
x[532] 1
x[533] 0
x[534] 1
x[535] 0
x[536] 1
x[537] 0
x[538] 0
x[539] 1
x[540] 0
x[541] 0
x[542] 0
x[543] 1
x[544] 1
x[545] 0
x[546] 1
x[547] 1
x[548] 0
x[549] 1
x[550] 1
x[551] 1
x[552] 1
x[553] 1
x[554] 0
x[555] 1
x[556] 0
x[557] 1
x[558] 1
x[559] 0
x[560] 1
x[561] 0
x[562] 1
x[563] 1
x[564] 0
x[565] 0
x[566] 1
x[567] 0
x[568] 1
x[569] 1
x[570] 1
x[571] 0
x[572] 0
x[573] 0
x[574] 0
x[575] 1
x[576] 1
x[577] 0
x[578] 0
x[579] 0
x[580] 1
x[581] 0
x[582] 0
x[583] 1
x[584] 1
x[585] 0
x[586] 0
x[587] 1
x[588] 0
x[589] 0
x[590] 0
x[591] 1
x[592] 0
x[593] 0
x[594] 1
x[595] 1
x[596] 1
x[597] 0
x[598] 1
x[599] 0
x[600] 0
x[601] 0
x[602] 0
x[603] 1
x[604] 0
x[605] 1
x[606] 1
x[607] 0
x[608] 1
x[609] 1
x[610] 1
x[611] 1
x[612] 1
x[613] 1
x[614] 0
x[615] 1
x[616] 1
x[617] 0
x[618] 0
x[619] 1
x[620] 1
x[621] 0
x[622] 1
x[623] 0
x[624] 1
x[625] 0
x[626] 0
x[627] 1
x[628] 0
x[629] 0
x[630] 0
x[631] 1
x[632] 1
x[633] 0
x[634] 1
x[635] 0
x[636] 0
x[637] 0
x[638] 1
x[639] 1
x[640] 0
x[641] 0
x[642] 1
x[643] 1
x[644] 1
x[645] 1
x[646] 1
x[647] 1
x[648] 1
x[649] 1
x[650] 1
x[651] 1
x[652] 1
x[653] 1
x[654] 1
x[655] 1
x[656] 0
x[657] 0
x[658] 1
x[659] 0
x[660] 0
x[661] 1
x[662] 0
x[663] 0
x[664] 0
x[665] 0
x[666] 0
x[667] 0
x[668] 0
x[669] 1
x[670] 1
x[671] 1
x[672] 0
x[673] 0
x[674] 0
x[675] 1
x[676] 1
x[677] 1
x[678] 1
x[679] 0
x[680] 0
x[681] 0
x[682] 0
x[683] 1
x[684] 1
x[685] 0
x[686] 1
x[687] 1
x[688] 0
x[689] 0
x[690] 0
x[691] 0
x[692] 1
x[693] 0
x[694] 0
x[695] 0
x[696] 0
x[697] 0
x[698] 0
x[699] 0
x[700] 1
x[701] 1
x[702] 1
x[703] 0
x[704] 1
x[705] 1
x[706] 1
x[707] 0
x[708] 1
x[709] 0
x[710] 0
x[711] 0
x[712] 1
x[713] 0
x[714] 0
x[715] 0
x[716] 1
x[717] 0
x[718] 0
x[719] 0
x[720] 1
x[721] 1
x[722] 1
x[723] 0
x[724] 1
x[725] 1
x[726] 0
x[727] 1
x[728] 0
x[729] 0
x[730] 1
x[731] 0
x[732] 1
x[733] 0
x[734] 0
x[735] 0
x[736] 0
x[737] 0
x[738] 1
x[739] 1
x[740] 0
x[741] 0
x[742] 1
x[743] 0
x[744] 0
x[745] 0
x[746] 0
x[747] 1
x[748] 0
x[749] 0
x[750] 1
x[751] 0
x[752] 1
x[753] 1
x[754] 1
x[755] 1
x[756] 0
x[757] 1
x[758] 0
x[759] 1
x[760] 1
x[761] 1
x[762] 1
x[763] 1
x[764] 1
x[765] 1
x[766] 0
x[767] 0
x[768] 0
x[769] 0
x[770] 1
x[771] 0
x[772] 0
x[773] 1
x[774] 1
x[775] 0
x[776] 1
x[777] 0
x[778] 0
x[779] 0
x[780] 0
x[781] 1
x[782] 1
x[783] 1
x[784] 1
x[785] 0
x[786] 1
x[787] 1
x[788] 0
x[789] 0
x[790] 0
x[791] 1
x[792] 1
x[793] 0
x[794] 1
x[795] 0
x[796] 0
x[797] 0
x[798] 1
x[799] 0
x[800] 1
x[801] 0
x[802] 1
x[803] 0
x[804] 0
x[805] 0
x[806] 1
x[807] 1
x[808] 0
x[809] 1
x[810] 1
x[811] 1
x[812] 1
x[813] 1
x[814] 1
x[815] 1
x[816] 0
x[817] 0
x[818] 0
x[819] 0
x[820] 1
x[821] 1
x[822] 0
x[823] 0
x[824] 1
x[825] 0
x[826] 1
x[827] 0
x[828] 0
x[829] 1
x[830] 1
x[831] 0
x[832] 1
x[833] 1
x[834] 1
x[835] 0
x[836] 1
x[837] 0
x[838] 1
x[839] 1
x[840] 0
x[841] 0
x[842] 0
x[843] 0
x[844] 1
x[845] 1
x[846] 0
x[847] 1
x[848] 0
x[849] 1
x[850] 0
x[851] 0
x[852] 0
x[853] 1
x[854] 1
x[855] 0
x[856] 1
x[857] 1
x[858] 1
x[859] 0
x[860] 0
x[861] 0
x[862] 1
x[863] 0
x[864] 1
x[865] 0
x[866] 0
x[867] 0
x[868] 0
x[869] 0
x[870] 1
x[871] 1
x[872] 0
x[873] 1
x[874] 0
x[875] 0
x[876] 0
x[877] 1
x[878] 0
x[879] 1
x[880] 1
x[881] 0
x[882] 1
x[883] 0
x[884] 1
x[885] 1
x[886] 0
x[887] 1
x[888] 0
x[889] 0
x[890] 1
x[891] 1
x[892] 1
x[893] 1
x[894] 0
x[895] 1
x[896] 0
x[897] 0
x[898] 0
x[899] 0
x[900] 0
x[901] 0
x[902] 0
x[903] 1
x[904] 0
x[905] 1
x[906] 0
x[907] 1
x[908] 1
x[909] 0
x[910] 0
x[911] 0
x[912] 0
x[913] 0
x[914] 0
x[915] 0
x[916] 0
x[917] 0
x[918] 1
x[919] 1
x[920] 1
x[921] 1
x[922] 0
x[923] 0
x[924] 0
x[925] 1
x[926] 1
x[927] 0
x[928] 0
x[929] 0
x[930] 1
x[931] 0
x[932] 1
x[933] 0
x[934] 1
x[935] 0
x[936] 0
x[937] 0
x[938] 0
x[939] 1
x[940] 1
x[941] 0
x[942] 1
x[943] 1
x[944] 1
x[945] 0
x[946] 0
x[947] 0
x[948] 0
x[949] 0
x[950] 0
x[951] 1
x[952] 0
x[953] 1
x[954] 0
x[955] 1
x[956] 0
x[957] 0
x[958] 1
x[959] 0
x[960] 0
x[961] 0
x[962] 0
x[963] 0
x[964] 1
x[965] 1
x[966] 0
x[967] 1
x[968] 1
x[969] 1
x[970] 0
x[971] 1
x[972] 0
x[973] 0
x[974] 1
x[975] 1
x[976] 1
x[977] 1
x[978] 1
x[979] 0
x[980] 0
x[981] 1
x[982] 0
x[983] 0
x[984] 1
x[985] 1
x[986] 1
x[987] 0
x[988] 1
x[989] 0
x[990] 1
x[991] 0
x[992] 1
x[993] 1
x[994] 0
x[995] 1
x[996] 1
x[997] 1
x[998] 0
x[999] 0
